NAME: rbg068a.sop
TYPE: SOP
COMMENT: Stacker crane application (Norbert Ascheuer)
DIMENSION: 68
EDGE_WEIGHT_TYPE: EXPLICIT
EDGE_WEIGHT_FORMAT: FULL_MATRIX 
EDGE_WEIGHT_SECTION
  68
   0   0   0   0   0   0   0   0   0   0   0   0   0   0   0   0   0   0   0   0   0   0   0   0   0   0   0   0   0   0   0   0   0   0   0   0   0   0   0   0   0   0   0   0   0   0   0   0   0   0   0   0   0   0   0   0   0   0   0   0   0   0   0   0   0   0   0 1000000
  -1   0  11  10  23   0  15  15  16  18  24  20  10  15  14  16  11  24  24  20  24  24  15  24  20  24  23  15  23  23  24  10  23  24  24  24  24  10  23  24  14  18  13  10  17  24   6  24  24  24  24  24  24  24   9  24  24  14  23  24  24  24  11  24  20  14  23   0
  -1   0   0  11  23  10  14  21  15  19  24  19  11  21  15  18  12  23  23  19  24  24  14  24  18  24  24  14  21  23  24   0  23  24  24  24  24  11  23  23  12  16  19  11  23  24  12  24  24  24  24  24  24  24  15  24  24  12  23  23  24  24  12  24  18  15  21   0
  -1  11  12   0  23  10  16  18  18  20  24  21   2  18  12  15  10  24  24  21  25  25  16  25  21  24  23  16  23  24  25  11  24  25  25  25  25   5  23  24  15  20  16   7  20  25  10  25  25  25  25  25  25  25  12  25  24  15  23  24  25  25  10  25  21  12  23   0
  -1  -1  -1  23   0  23  26  23  27  27  31  28  23  23  18  15  23  31  31  28  33  33  26  33  28  31   0  26  29  31  33  24  31  33  33  33  33  23  30  31  25  27  24  23  23  33  23  33  33  33  33  33  33  33  23  33  31  25  10  31  33  33  23  33  28  18  29   0
  -1  -1  -1  10  23   0  15  18  16  18  24  20  10  18  14  16  11  24  24  20  24  24  15  24  20  24  23  15  23  23  24  10  23  24  24  24  24  10  23  24  14  18  16  10  20  24   9  24  24  24  24  24  24  24  12  24  24  14  23  24  24  24  11  24  20  14  23   0
  -1  -1  -1  15  16  14   0  21  11  19  21  19  15  21  21  23  16  20  20  19  23  23  10  23  12  21  25  14  19  18  23  12  18  23  23  23  23  15  16  20  11  12  19  15  23  23  14  23  23  23  23  23  23  23  15  23  21   8  25  20  23  23  16  23  15  21  15   0
  -1  -1  -1  15  16  14  10   0  11  19  21  19  15  21  21  23  16  20  20  19  23  23  10  23  12  21  25  14  19  18  23  12  18  23  23  23  23  15  16  20  11  12  19  15  23  23  14  23  23  23  23  23  23  23  15  23  21   8  25  20  23  23  16  23  15  21  15   0
  -1  -1  -1  25  12  24  21  24   0  18  10  18  25  24  27  28  25  18  11  18   0   0  21   0  16  10  33  21  18  14   0  24  12   0   0   0   0  25  12  11  23  18  24  25  24   0  24   0   0   0   0   0   0   0  24   0  10  23  31  14   0   0  25   0  16  27  14   0
  -1  -1  -1  18  14  16  10  21   0   0  18  19  18  21  23  24  20  19  16  19  20  20  10  20  11  18  27  14  19  15  20  15  15  20  20  20  20  18  14  16  11  10  19  18  23  20  16  20  20  20  20  20  20  20  16  20  18  11  26  16  20  20  20  20  15  23  12   0
  -1  -1  -1  -1  -1  -1  15  23  14  12   0  12  23  23  25  26  24  11  11  12  12  12  15  12  12  12  30  15  10  10  12  23  10  12  12  12  12  23  10  11  16  12  23  23  23  12  23  12  12  12  12  12  12  12  23  12  12  16  29  11  12  12  24  12  12  25  10   0
  -1  -1  -1  -1  -1  -1  20  24  18  19   0   0  24  24  27  28  25  19  10  19  10  10  20  10  15   0  31  20  19  15  10  24  11  10  10  10  10  24  12  10  21  16  24  24  24  10  24  10  10  10  10  10  10  10  24  10   0  21  31  15  10  10  25  10  15  27  12   0
  -1  -1  -1  -1  -1  -1  16  18  18  20  24  21   0  18  12  15  10  24  24  21  25  25  16  25  21  24  23  16  23  24  25  11  24  25  25  25  25   5  23  24  15  20  16   7  20  25  10  25  25  25  25  25  25  25  12  25  24  15  23  24  25  25  10  25  21  12  23   0
  -1  -1  -1  -1  -1  -1  10  21  11  19  21  19  15   0  21  23  16  20  20  19  23  23  10  23  12  21  25  14  19  18  23  12  18  23  23  23  23  15  16  20  11  12  19  15  23  23  14  23  23  23  23  23  23  23  15  23  21   8  25  20  23  23  16  23  15  21  15   0
  -1  -1  -1  -1  -1  -1  -1  -1  -1  -1  27  24  14  15   0  10  12  27  27  24  28  28  23  28  24  27  16  23  25  26  28  16  26  28  28  28  28  14  25  27  23  24  16  14  17  28  15  28  28  28  28  28  28  28  15  28  27  23  15  27  28  28  12  28  24  10  25   0
  -1  -1  -1  -1  -1  -1  -1  -1  -1  -1  27  24  12  21   0   0  12  26  26  24  27  27  23  27  24  27  18  23  24  25  27  15  25  27  27  27  27  12  25  26  21  23  19  12  23  27  14  27  27  27  27  27  27  27  15  27  27  21  16  26  27  27  12  27  24   0  24   0
  -1  -1  -1  -1  -1  -1  -1  -1  -1  -1  -1  -1  -1  24  27  28   0  18  11  18   0   0  21   0  16  10  33  21  18  14   0  24  12   0   0   0   0  25  12  11  23  18  24  25  24   0  24   0   0   0   0   0   0   0  24   0  10  23  31  14   0   0  25   0  16  27  14   0
  -1  -1  -1  -1  -1  -1  -1  -1  -1  -1  -1  -1  -1  21  12  15   0   0  24  23  25  25  18  25  23  25  23  18  23  24  25  12  24  25  25  25  25  10  24  24  16  21  19  10  23  25  12  25  25  25  25  25  25  25  15  25  25  16  21  24  25  25   6  25  23  12  23   0
  -1  -1  -1  -1  -1  -1  -1  -1  -1  -1  -1  -1  -1  -1  27  28  25  18   0  18   0   0  21   0  16  10  33  21  18  14   0  24  12   0   0   0   0  25  12  11  23  18  24  25  24   0  24   0   0   0   0   0   0   0  24   0  10  23  31  14   0   0  25   0  16  27  14   0
  -1  -1  -1  -1  -1  -1  -1  -1  -1  -1  -1  -1  -1  -1  26  27  24  19   0   0  11  11  18  11  14  10  31  18  19  15  11  23  10  11  11  11  11  24  11   0  20  15  23  24  24  11  24  11  11  11  11  11  11  11  24  11  10  20  31  15  11  11  24  11  15  26  12   0
  -1  -1  -1  -1  -1  -1  -1  -1  -1  -1  -1  -1  -1  -1  -1  -1  -1  -1  10  15   0  10  20  10  15   6  31  20  13  11  10  24  11  10  10  10  10  24  12  10  21  16  24  24  24  10  24  10  10  10  10  10  10  10  24  10   6  21  31  10  10  10  25  10  15  27  12   0
  -1  -1  -1  -1  -1  -1  -1  -1  -1  -1  -1  -1  -1  -1  -1  -1  -1  -1  -1  -1  10   0  20  10  15   6  31  20  13  11  10  24  11  10  10  10  10  24  12  10  21  16  24  24  24  10  24  10  10  10  10  10  10  10  24  10   6  21  31  10  10  10  25  10  15  27  12   0
  -1  -1  -1  -1  -1  -1  -1  -1  -1  -1  -1  -1  -1  -1  -1  -1  -1  -1  -1  -1  -1  -1   0  23  12  21  25  14  19  18  23  12  18  23  23  23  23  15  16  20  11  12  19  15  23  23  14  23  23  23  23  23  23  23  15  23  21   8  25  20  23  23  16  23  15  21  15   0
  -1  -1  -1  -1  -1  -1  -1  -1  -1  -1  -1  -1  -1  -1  -1  -1  -1  -1  -1  -1  -1  -1  20   0  15   6  31  20  13  11  10  24  11  10  10  10  10  24  12  10  21  16  24  24  24  10  24  10  10  10  10  10  10  10  24  10   6  21  31  10  10  10  25  10  15  27  12   0
  -1  -1  -1  -1  -1  -1  -1  -1  -1  -1  -1  -1  -1  -1  -1  -1  -1  -1  -1  -1  -1  -1  21   0   0  10  33  21  18  14   0  24  12   0   0   0   0  25  12  11  23  18  24  25  24   0  24   0   0   0   0   0   0   0  24   0  10  23  31  14   0   0  25   0  16  27  14   0
  -1  -1  -1  -1  -1  -1  -1  -1  -1  -1  -1  -1  -1  -1  -1  -1  -1  -1  -1  -1  -1  -1  21   0  16   0  33  21  18  14   0  24  12   0   0   0   0  25  12  11  23  18  24  25  24   0  24   0   0   0   0   0   0   0  24   0  10  23  31  14   0   0  25   0  16  27  14   0
  -1  -1  -1  -1  -1  -1  -1  -1  -1  -1  -1  -1  -1  -1  -1  -1  -1  -1  -1  -1  -1  -1  12  16   0  15   0  14  19  15  16  18  12  16  16  16  16  21  12  14  12  10  19  21  23  16  20  16  16  16  16  16  16  16  20  16  15  12  27  15  16  16  23  16  15  24  11   0
  -1  -1  -1  -1  -1  -1  -1  -1  -1  -1  -1  -1  -1  -1  -1  -1  -1  -1  -1  -1  -1  -1  20  10  15   0  31   0  19  15  10  24  11  10  10  10  10  24  12  10  21  16  24  24  24  10  24  10  10  10  10  10  10  10  24  10   0  21  31  15  10  10  25  10  15  27  12   0
  -1  -1  -1  -1  -1  -1  -1  -1  -1  -1  -1  -1  -1  -1  -1  -1  -1  -1  -1  -1  -1  -1  -1  33  28  31   0  26   0  31  33  24  31  33  33  33  33  23  30  31  25  27  24  23  23  33  23  33  33  33  33  33  33  33  23  33  31  25  10  31  33  33  23  33  28  18  29   0
  -1  -1  -1  -1  -1  -1  -1  -1  -1  -1  -1  -1  -1  -1  -1  -1  -1  -1  -1  -1  -1  -1  -1  33  28  31   0  26  29   0  33  24  31  33  33  33  33  23  30  31  25  27  24  23  23  33  23  33  33  33  33  33  33  33  23  33  31  25  10  31  33  33  23  33  28  18  29   0
  -1  -1  -1  -1  -1  -1  -1  -1  -1  -1  -1  -1  -1  -1  -1  -1  -1  -1  -1  -1  -1  -1  -1  -1  -1  -1  -1  -1  -1  -1   0  24  11  10  10  10  10  24  12  10  21  16  24  24  24  10  24  10  10  10  10  10  10  10  24  10   6  21  31  10  10  10  25  10  15  27  12   0
  -1  -1  -1  -1  -1  -1  -1  -1  -1  -1  -1  -1  -1  -1  -1  -1  -1  -1  -1  -1  -1  -1  -1  -1  -1  -1  -1  -1  -1  -1  25   0  24  25  25  25  25  10  24  24  16  21  12  10  12  25  11  25  25  25  25  25  25  25  11  25  25  16  21  24  25  25   4  25  23  12  23   0
  -1  -1  -1  -1  -1  -1  -1  -1  -1  -1  -1  -1  -1  -1  -1  -1  -1  -1  -1  -1  -1  -1  -1  -1  -1  -1  -1  -1  -1  -1  24   0   0  24  24  24  24  11  23  23  12  16  19  11  23  24  12  24  24  24  24  24  24  24  15  24  24  12  23  23  24  24  12  24  18  15  21   0
  -1  -1  -1  -1  -1  -1  -1  -1  -1  -1  -1  -1  -1  -1  -1  -1  -1  -1  -1  -1  -1  -1  -1  -1  -1  -1  -1  -1  -1  -1  10  24  11   0  10  10  10  24  12  10  21  16  24  24  24  10  24  10  10  10  10  10  10  10  24  10   6  21  31  10  10  10  25  10  15  27  12   0
  -1  -1  -1  -1  -1  -1  -1  -1  -1  -1  -1  -1  -1  -1  -1  -1  -1  -1  -1  -1  -1  -1  -1  -1  -1  -1  -1  -1  -1  -1  -1  24  11  10   0  10  10  24  12  10  21  16  24  24  24  10  24  10  10  10  10  10  10  10  24  10   6  21  31  10  10  10  25  10  15  27  12   0
  -1  -1  -1  -1  -1  -1  -1  -1  -1  -1  -1  -1  -1  -1  -1  -1  -1  -1  -1  -1  -1  -1  -1  -1  -1  -1  -1  -1  -1  -1  -1  24  11  10  10   0  10  24  12  10  21  16  24  24  24  10  24  10  10  10  10  10  10  10  24  10   6  21  31  10  10  10  25  10  15  27  12   0
  -1  -1  -1  -1  -1  -1  -1  -1  -1  -1  -1  -1  -1  -1  -1  -1  -1  -1  -1  -1  -1  -1  -1  -1  -1  -1  -1  -1  -1  -1  -1  24  11  10  10  10   0  24  12  10  21  16  24  24  24  10  24  10  10  10  10  10  10  10  24  10   6  21  31  10  10  10  25  10  15  27  12   0
  -1  -1  -1  -1  -1  -1  -1  -1  -1  -1  -1  -1  -1  -1  -1  -1  -1  -1  -1  -1  -1  -1  -1  -1  -1  -1  -1  -1  -1  -1  -1  11  24  25  25  25  25   0  23  24  15  20  18   8  21  25  11  25  25  25  25  25  25  25  13  25  24  15  23  24  25  25  10  25  21  12  23   0
  -1  -1  -1  -1  -1  -1  -1  -1  -1  -1  -1  -1  -1  -1  -1  -1  -1  -1  -1  -1  -1  -1  -1  -1  -1  -1  -1  -1  -1  -1  -1  24  12   0   0   0   0  25   0  11  23  18  24  25  24   0  24   0   0   0   0   0   0   0  24   0  10  23  31  14   0   0  25   0  16  27  14   0
  -1  -1  -1  -1  -1  -1  -1  -1  -1  -1  -1  -1  -1  -1  -1  -1  -1  -1  -1  -1  -1  -1  -1  -1  -1  -1  -1  -1  -1  -1  -1  24  12   0   0   0   0  25  12   0  23  18  24  25  24   0  24   0   0   0   0   0   0   0  24   0  10  23  31  14   0   0  25   0  16  27  14   0
  -1  -1  -1  -1  -1  -1  -1  -1  -1  -1  -1  -1  -1  -1  -1  -1  -1  -1  -1  -1  -1  -1  -1  -1  -1  -1  -1  -1  -1  -1  -1  -1  -1  23  23  23  23  15  16  20   0  12  19  15  23  23  14  23  23  23  23  23  23  23  15  23  21   8  25  20  23  23  16  23  15  21  15   0
  -1  -1  -1  -1  -1  -1  -1  -1  -1  -1  -1  -1  -1  -1  -1  -1  -1  -1  -1  -1  -1  -1  -1  -1  -1  -1  -1  -1  -1  -1  -1  -1  -1  15  15  15  15  23  11  12  14   0  20  23  21  15  21  15  15  15  15  15  15  15  21  15  14  14  28  13  15  15  23  15  13  24  10   0
  -1  -1  -1  -1  -1  -1  -1  -1  -1  -1  -1  -1  -1  -1  -1  -1  -1  -1  -1  -1  -1  -1  -1  -1  -1  -1  -1  -1  -1  -1  -1  23  10  12  12  12  12  23   0  11  16  12   0  23  23  12  23  12  12  12  12  12  12  12  23  12  12  16  29  15  12  12  24  12  15  25  10   0
  -1  -1  -1  -1  -1  -1  -1  -1  -1  -1  -1  -1  -1  -1  -1  -1  -1  -1  -1  -1  -1  -1  -1  -1  -1  -1  -1  -1  -1  -1  -1  23  10  11  11  11  11  24  11   0  20  15  23   0  24  11  24  11  11  11  11  11  11  11  24  11  10  20  31  15  11  11  24  11  15  26  12   0
  -1  -1  -1  -1  -1  -1  -1  -1  -1  -1  -1  -1  -1  -1  -1  -1  -1  -1  -1  -1  -1  -1  -1  -1  -1  -1  -1  -1  -1  -1  -1  -1  -1  -1  -1  -1  23  15  16  20  11  12  19  15   0  23  14  23  23  23  23  23  23  23  15  23  21   8  25  20  23  23  16  23  15  21  15   0
  -1  -1  -1  -1  -1  -1  -1  -1  -1  -1  -1  -1  -1  -1  -1  -1  -1  -1  -1  -1  -1  -1  -1  -1  -1  -1  -1  -1  -1  -1  -1  -1  -1  -1  -1  -1  -1  24  12  10  21  16  24  24  24   0  24  10  10  10  10  10  10  10  24  10   6  21  31  10  10  10  25  10  15  27  12   0
  -1  -1  -1  -1  -1  -1  -1  -1  -1  -1  -1  -1  -1  -1  -1  -1  -1  -1  -1  -1  -1  -1  -1  -1  -1  -1  -1  -1  -1  -1  -1  -1  -1  -1  -1  -1  -1  -1  -1  -1  12  10  -1  -1  23  16   0  16  16  16  16  16  16  16  20  16  15  12  27  15  16  16  23  16  15  24  11   0
  -1  -1  -1  -1  -1  -1  -1  -1  -1  -1  -1  -1  -1  -1  -1  -1  -1  -1  -1  -1  -1  -1  -1  -1  -1  -1  -1  -1  -1  -1  -1  -1  -1  -1  -1  -1  -1  -1  -1  -1  -1  -1  -1  -1  -1  10  24   0  10  10  10  10  10  10  24  10   6  21  31  10  10  10  25  10  15  27  12   0
  -1  -1  -1  -1  -1  -1  -1  -1  -1  -1  -1  -1  -1  -1  -1  -1  -1  -1  -1  -1  -1  -1  -1  -1  -1  -1  -1  -1  -1  -1  -1  -1  -1  -1  -1  -1  -1  -1  -1  -1  -1  -1  -1  -1  -1  10  24  10   0  10  10  10  10  10  24  10   6  21  31  10  10  10  25  10  15  27  12   0
  -1  -1  -1  -1  -1  -1  -1  -1  -1  -1  -1  -1  -1  -1  -1  -1  -1  -1  -1  -1  -1  -1  -1  -1  -1  -1  -1  -1  -1  -1  -1  -1  -1  -1  -1  -1  -1  -1  -1  -1  -1  -1  -1  -1  -1  -1  24  10  10   0  10  10  10  10  24  10   6  21  31  10  10  10  25  10  15  27  12   0
  -1  -1  -1  -1  -1  -1  -1  -1  -1  -1  -1  -1  -1  -1  -1  -1  -1  -1  -1  -1  -1  -1  -1  -1  -1  -1  -1  -1  -1  -1  -1  -1  -1  -1  -1  -1  -1  -1  -1  -1  -1  -1  -1  -1  -1  -1  -1  10  10  10   0  10  10  10  24  10   6  21  31  10  10  10  25  10  15  27  12   0
  -1  -1  -1  -1  -1  -1  -1  -1  -1  -1  -1  -1  -1  -1  -1  -1  -1  -1  -1  -1  -1  -1  -1  -1  -1  -1  -1  -1  -1  -1  -1  -1  -1  -1  -1  -1  -1  -1  -1  -1  -1  -1  -1  -1  -1  -1  -1  10  10  10  10   0  10  10  24  10   6  21  31  10  10  10  25  10  15  27  12   0
  -1  -1  -1  -1  -1  -1  -1  -1  -1  -1  -1  -1  -1  -1  -1  -1  -1  -1  -1  -1  -1  -1  -1  -1  -1  -1  -1  -1  -1  -1  -1  -1  -1  -1  -1  -1  -1  -1  -1  -1  -1  -1  -1  -1  -1  -1  -1  10  10  10  10  10   0  10  24  10   6  21  31  10  10  10  25  10  15  27  12   0
  -1  -1  -1  -1  -1  -1  -1  -1  -1  -1  -1  -1  -1  -1  -1  -1  -1  -1  -1  -1  -1  -1  -1  -1  -1  -1  -1  -1  -1  -1  -1  -1  -1  -1  -1  -1  -1  -1  -1  -1  -1  -1  -1  -1  -1  -1  -1  -1  -1  -1  -1  -1  10   0  24  10   6  21  31  10  10  10  25  10  15  27  12   0
  -1  -1  -1  -1  -1  -1  -1  -1  -1  -1  -1  -1  -1  -1  -1  -1  -1  -1  -1  -1  -1  -1  -1  -1  -1  -1  -1  -1  -1  -1  -1  -1  -1  -1  -1  -1  -1  -1  -1  -1  -1  -1  -1  -1  -1  -1  -1  -1  -1  -1  -1  -1  -1  33   0  33  31  25  10  31  33  33  23  33  28  18  29   0
  -1  -1  -1  -1  -1  -1  -1  -1  -1  -1  -1  -1  -1  -1  -1  -1  -1  -1  -1  -1  -1  -1  -1  -1  -1  -1  -1  -1  -1  -1  -1  -1  -1  -1  -1  -1  -1  -1  -1  -1  -1  -1  -1  -1  -1  -1  -1  -1  -1  -1  -1  -1  -1  10  24   0   6  21  31  10  10  10  25  10  15  27  12   0
  -1  -1  -1  -1  -1  -1  -1  -1  -1  -1  -1  -1  -1  -1  -1  -1  -1  -1  -1  -1  -1  -1  -1  -1  -1  -1  -1  -1  -1  -1  -1  -1  -1  -1  -1  -1  -1  -1  -1  -1  -1  -1  -1  -1  -1  -1  -1  -1  -1  -1  -1  -1  -1  -1  24   0   0  23  31  14   0   0  25   0  16  27  14   0
  -1  -1  -1  -1  -1  -1  -1  -1  -1  -1  -1  -1  -1  -1  -1  -1  -1  -1  -1  -1  -1  -1  -1  -1  -1  -1  -1  -1  -1  -1  -1  -1  -1  -1  -1  -1  -1  -1  -1  -1  -1  -1  -1  -1  -1  -1  -1  -1  -1  -1  -1  -1  -1  -1  24  10   0   0  31  15  10  10  25  10  15  27  12   0
  -1  -1  -1  -1  -1  -1  -1  -1  -1  -1  -1  -1  -1  -1  -1  -1  -1  -1  -1  -1  -1  -1  -1  -1  -1  -1  -1  -1  -1  -1  -1  -1  -1  -1  -1  -1  -1  -1  -1  -1  -1  -1  -1  -1  -1  -1  -1  -1  -1  -1  -1  -1  -1  -1  -1  31  31  25   0  31  31  31  21  31  27  19  28   0
  -1  -1  -1  -1  -1  -1  -1  -1  -1  -1  -1  -1  -1  -1  -1  -1  -1  -1  -1  -1  -1  -1  -1  -1  -1  -1  -1  -1  -1  -1  -1  -1  -1  -1  -1  -1  -1  -1  -1  -1  -1  -1  -1  -1  -1  -1  -1  -1  -1  -1  -1  -1  -1  -1  -1  33  31  25  10   0  33  33  23  33  28  18  29   0
  -1  -1  -1  -1  -1  -1  -1  -1  -1  -1  -1  -1  -1  -1  -1  -1  -1  -1  -1  -1  -1  -1  -1  -1  -1  -1  -1  -1  -1  -1  -1  -1  -1  -1  -1  -1  -1  -1  -1  -1  -1  -1  -1  -1  -1  -1  -1  -1  -1  -1  -1  -1  -1  -1  -1  10   6  21  31  10   0  10  25  10  15  27  12   0
  -1  -1  -1  -1  -1  -1  -1  -1  -1  -1  -1  -1  -1  -1  -1  -1  -1  -1  -1  -1  -1  -1  -1  -1  -1  -1  -1  -1  -1  -1  -1  -1  -1  -1  -1  -1  -1  -1  -1  -1  -1  -1  -1  -1  -1  -1  -1  -1  -1  -1  -1  -1  -1  -1  -1  10   6  21  31  10  10   0  25  10  15  27  12   0
  -1  -1  -1  -1  -1  -1  -1  -1  -1  -1  -1  -1  -1  -1  -1  -1  -1  -1  -1  -1  -1  -1  -1  -1  -1  -1  -1  -1  -1  -1  -1  -1  -1  -1  -1  -1  -1  -1  -1  -1  -1  -1  -1  -1  -1  -1  -1  -1  -1  -1  -1  -1  -1  -1  -1  31  31  25   0  31  31  31   0  31  27  16  28   0
  -1  -1  -1  -1  -1  -1  -1  -1  -1  -1  -1  -1  -1  -1  -1  -1  -1  -1  -1  -1  -1  -1  -1  -1  -1  -1  -1  -1  -1  -1  -1  -1  -1  -1  -1  -1  -1  -1  -1  -1  -1  -1  -1  -1  -1  -1  -1  -1  -1  -1  -1  -1  -1  -1  -1  -1  -1  -1  31  10  10  10  25   0  15  27  12   0
  -1  -1  -1  -1  -1  -1  -1  -1  -1  -1  -1  -1  -1  -1  -1  -1  -1  -1  -1  -1  -1  -1  -1  -1  -1  -1  -1  -1  -1  -1  -1  -1  -1  -1  -1  -1  -1  -1  -1  -1  -1  -1  -1  -1  -1  -1  -1  -1  -1  -1  -1  -1  -1  -1  -1  -1  -1  -1  -1  31  33  33  -1  33   0  18  29   0
  -1  -1  -1  -1  -1  -1  -1  -1  -1  -1  -1  -1  -1  -1  -1  -1  -1  -1  -1  -1  -1  -1  -1  -1  -1  -1  -1  -1  -1  -1  -1  -1  -1  -1  -1  -1  -1  -1  -1  -1  -1  -1  -1  -1  -1  -1  -1  -1  -1  -1  -1  -1  -1  -1  -1  -1  -1  -1  -1  25  27  27  -1  27  23   0  24   0
  -1  -1  -1  -1  -1  -1  -1  -1  -1  -1  -1  -1  -1  -1  -1  -1  -1  -1  -1  -1  -1  -1  -1  -1  -1  -1  -1  -1  -1  -1  -1  -1  -1  -1  -1  -1  -1  -1  -1  -1  -1  -1  -1  -1  -1  -1  -1  -1  -1  -1  -1  -1  -1  -1  -1  -1  -1  -1  -1  26  27  27  -1  27  24   0   0   0
  -1  -1  -1  -1  -1  -1  -1  -1  -1  -1  -1  -1  -1  -1  -1  -1  -1  -1  -1  -1  -1  -1  -1  -1  -1  -1  -1  -1  -1  -1  -1  -1  -1  -1  -1  -1  -1  -1  -1  -1  -1  -1  -1  -1  -1  -1  -1  -1  -1  -1  -1  -1  -1  -1  -1  -1  -1  -1  -1  -1  -1  -1  -1  -1  -1  -1  -1   0
